(set-logic ALL)
(set-option :produce-models true)
(declare-sort BoundSet 0)
(declare-sort UnboundSet 0)
(set-option :finite-model-find true)
(declare-fun IsForcedToRelocate (BoundSet BoundSet) Bool)
(declare-fun FacesScarcity (BoundSet BoundSet) Bool)
(declare-fun Collapses (BoundSet BoundSet) Bool)
(declare-fun SuffersDramatically (BoundSet BoundSet) Bool)
(declare-fun Unravels (BoundSet BoundSet) Bool)
(assert (not (=> (exists ((c BoundSet)) (exists ((b BoundSet)) (exists ((e BoundSet)) (exists ((f BoundSet)) (exists ((g BoundSet)) (exists ((h BoundSet)) (exists ((a BoundSet)) (exists ((d BoundSet)) (and (IsForcedToRelocate a b) (and (FacesScarcity c d) (and (Collapses e f) (SuffersDramatically g h)))))))))))) (exists ((i BoundSet)) (exists ((j BoundSet)) (Unravels i j))))))
(check-sat)
(get-model)